; benchmark generated from python API
(set-info :status unknown)
(declare-fun x_days () Int)
(declare-fun y_days () Int)
(assert
 (>= x_days (- 36584)))
(assert
 (<= x_days 36829))
(assert
 (>= y_days (- 36584)))
(assert
 (<= y_days 36829))
(assert
 (>= x_days 7244))
(assert
 (<= x_days 7276))
(assert
 (let (($x29 (or (and (= (mod 2000 4) 0) (and (distinct (mod 2000 100) 0) true)) (= (mod 2000 400) 0))))
 (let ((?x36 (ite (= 3 2) (ite $x29 31 31) (ite (= 3 1) (ite $x29 0 0) 0))))
 (let ((?x40 (ite $x29 60 59)))
 (let ((?x41 (ite (= 3 3) ?x40 ?x36)))
 (let ((?x46 (ite (= 3 4) (ite $x29 91 90) ?x41)))
 (let ((?x52 (ite (= 3 5) (ite $x29 121 120) ?x46)))
 (let ((?x58 (ite (= 3 6) (ite $x29 152 151) ?x52)))
 (let ((?x64 (ite (= 3 7) (ite $x29 182 181) ?x58)))
 (let ((?x70 (ite (= 3 8) (ite $x29 213 212) ?x64)))
 (let ((?x76 (ite (= 3 9) (ite $x29 244 243) ?x70)))
 (let ((?x82 (ite (= 3 10) (ite $x29 274 273) ?x76)))
 (let ((?x88 (ite (= 3 11) (ite $x29 305 304) ?x82)))
 (let ((?x16 (- (+ (* 365 (- 2000 1)) (div (- 2000 1) 4)) (div (- 2000 1) 100))))
 (let ((?x95 (+ (+ ?x16 (div (- 2000 1) 400)) (ite (= 3 12) (ite $x29 335 334) ?x88))))
 (let ((?x97 (+ ?x95 (- 1 1))))
 (let ((?x235 (+ x_days ?x97)))
 (let ((?x478 (mod ?x235 146097)))
 (let ((?x787 (div ?x478 36524)))
 (let ((?x143 (ite (<= 4 ?x787) 3 ?x787)))
 (let ((?x373 (- ?x478 (* ?x143 36524))))
 (let ((?x199 (mod ?x373 1461)))
 (let ((?x697 (div ?x199 365)))
 (let ((?x707 (ite (<= 4 ?x697) 3 ?x697)))
 (let ((?x518 (+ (+ (* (div ?x235 146097) 400) (* ?x143 100)) (* (div ?x373 1461) 4))))
 (let ((?x463 (+ (+ ?x518 ?x707) 1)))
 (let (($x2515 (or (and (= (mod ?x463 4) 0) (and (distinct (mod ?x463 100) 0) true)) (= (mod ?x463 400) 0))))
 (let ((?x336 (- ?x199 (* ?x707 365))))
 (let ((?x230 (ite $x2515 31 31)))
 (let (($x109 (>= ?x336 ?x230)))
 (let ((?x2501 (ite $x109 (+ (- ?x336 ?x230) 1) (+ (- ?x336 (ite $x2515 0 0)) 1))))
 (let ((?x282 (ite $x2515 60 59)))
 (let (($x421 (>= ?x336 ?x282)))
 (let ((?x115 (ite $x2515 91 90)))
 (let (($x277 (>= ?x336 ?x115)))
 (let ((?x797 (ite $x277 (+ (- ?x336 ?x115) 1) (ite $x421 (+ (- ?x336 ?x282) 1) ?x2501))))
 (let ((?x397 (ite $x2515 121 120)))
 (let (($x103 (>= ?x336 ?x397)))
 (let ((?x394 (ite $x2515 152 151)))
 (let (($x490 (>= ?x336 ?x394)))
 (let ((?x266 (ite $x490 (+ (- ?x336 ?x394) 1) (ite $x103 (+ (- ?x336 ?x397) 1) ?x797))))
 (let ((?x446 (ite $x2515 182 181)))
 (let (($x503 (>= ?x336 ?x446)))
 (let ((?x544 (ite $x2515 213 212)))
 (let (($x512 (>= ?x336 ?x544)))
 (let ((?x554 (ite $x512 (+ (- ?x336 ?x544) 1) (ite $x503 (+ (- ?x336 ?x446) 1) ?x266))))
 (let ((?x568 (ite $x2515 244 243)))
 (let (($x400 (>= ?x336 ?x568)))
 (let ((?x201 (ite $x2515 274 273)))
 (let (($x689 (>= ?x336 ?x201)))
 (let ((?x337 (ite $x689 (+ (- ?x336 ?x201) 1) (ite $x400 (+ (- ?x336 ?x568) 1) ?x554))))
 (let ((?x409 (ite $x2515 305 304)))
 (let (($x214 (>= ?x336 ?x409)))
 (let ((?x837 (ite $x2515 335 334)))
 (let (($x612 (>= ?x336 ?x837)))
 (let ((?x392 (ite $x612 (+ (- ?x336 ?x837) 1) (ite $x214 (+ (- ?x336 ?x409) 1) ?x337))))
 (let ((?x605 (ite $x103 5 (ite $x277 4 (ite $x421 3 (ite $x109 2 1))))))
 (let ((?x496 (ite $x400 9 (ite $x512 8 (ite $x503 7 (ite $x490 6 ?x605))))))
 (let ((?x674 (+ (ite $x612 12 (ite $x214 11 (ite $x689 10 ?x496))) (+ (* 1 12) 0))))
 (let ((?x298 (- ?x674 1)))
 (let ((?x751 (+ (mod ?x298 12) 1)))
 (let ((?x104 (ite (or (= ?x751 4) (= ?x751 6) (= ?x751 9) (= ?x751 11)) 30 31)))
 (let (($x469 (and (= (mod (+ ?x463 (+ 0 (div ?x298 12))) 4) 0) (and (distinct (mod (+ ?x463 (+ 0 (div ?x298 12))) 100) 0) true))))
 (let ((?x399 (ite (or $x469 (= (mod (+ ?x463 (+ 0 (div ?x298 12))) 400) 0)) 29 28)))
 (let ((?x2648 (ite (= ?x751 2) ?x399 ?x104)))
 (let ((?x631 (ite (> 1 ?x392) 1 (ite (> ?x392 ?x2648) ?x2648 ?x392))))
 (let ((?x688 (ite (> 1 ?x631) 1 (ite (> ?x631 ?x2648) ?x2648 ?x631))))
 (let ((?x607 (+ ?x463 (+ 0 (div ?x298 12)))))
 (let ((?x110 (+ ?x607 (* (div 0 146097) 400))))
 (let (($x119 (or (and (= (mod ?x110 4) 0) (and (distinct (mod ?x110 100) 0) true)) (= (mod ?x110 400) 0))))
 (let ((?x140 (ite (= 2 ?x751) (ite $x119 31 31) (ite (= 1 ?x751) (ite $x119 0 0) 0))))
 (let ((?x701 (ite (= 4 ?x751) (ite $x119 91 90) (ite (= 3 ?x751) (ite $x119 60 59) ?x140))))
 (let ((?x476 (ite (= 6 ?x751) (ite $x119 152 151) (ite (= 5 ?x751) (ite $x119 121 120) ?x701))))
 (let ((?x511 (ite (= 8 ?x751) (ite $x119 213 212) (ite (= 7 ?x751) (ite $x119 182 181) ?x476))))
 (let ((?x461 (ite (= 10 ?x751) (ite $x119 274 273) (ite (= 9 ?x751) (ite $x119 244 243) ?x511))))
 (let ((?x788 (ite (= 12 ?x751) (ite $x119 335 334) (ite (= 11 ?x751) (ite $x119 305 304) ?x461))))
 (let ((?x489 (- (+ (* 365 (- ?x110 1)) (div (- ?x110 1) 4)) (div (- ?x110 1) 100))))
 (let ((?x437 (- (+ (+ (+ ?x489 (div (- ?x110 1) 400)) ?x788) (- ?x688 1)) ?x97)))
 (let ((?x738 (+ (+ ?x437 (mod 0 146097)) ?x97)))
 (let ((?x203 (mod ?x738 146097)))
 (let ((?x383 (div ?x203 36524)))
 (let ((?x113 (ite (<= 4 ?x383) 3 ?x383)))
 (let ((?x632 (- ?x203 (* ?x113 36524))))
 (let ((?x808 (mod ?x632 1461)))
 (let ((?x573 (div ?x808 365)))
 (let ((?x604 (ite (<= 4 ?x573) 3 ?x573)))
 (let ((?x533 (+ (+ (* (div ?x738 146097) 400) (* ?x113 100)) (* (div ?x632 1461) 4))))
 (let ((?x240 (+ (+ ?x533 ?x604) 1)))
 (let (($x589 (or (and (= (mod ?x240 4) 0) (and (distinct (mod ?x240 100) 0) true)) (= (mod ?x240 400) 0))))
 (let ((?x747 (- ?x808 (* ?x604 365))))
 (let ((?x535 (ite $x589 31 31)))
 (let (($x617 (>= ?x747 ?x535)))
 (let ((?x495 (ite $x617 (+ (- ?x747 ?x535) 1) (+ (- ?x747 (ite $x589 0 0)) 1))))
 (let ((?x245 (ite $x589 60 59)))
 (let (($x2810 (>= ?x747 ?x245)))
 (let ((?x869 (ite $x589 91 90)))
 (let (($x1414 (>= ?x747 ?x869)))
 (let ((?x420 (ite $x1414 (+ (- ?x747 ?x869) 1) (ite $x2810 (+ (- ?x747 ?x245) 1) ?x495))))
 (let ((?x209 (ite $x589 121 120)))
 (let (($x549 (>= ?x747 ?x209)))
 (let ((?x551 (ite $x589 152 151)))
 (let (($x488 (>= ?x747 ?x551)))
 (let ((?x218 (ite $x488 (+ (- ?x747 ?x551) 1) (ite $x549 (+ (- ?x747 ?x209) 1) ?x420))))
 (let ((?x2343 (ite $x589 182 181)))
 (let (($x386 (>= ?x747 ?x2343)))
 (let ((?x146 (ite $x589 213 212)))
 (let (($x784 (>= ?x747 ?x146)))
 (let ((?x2999 (ite $x784 (+ (- ?x747 ?x146) 1) (ite $x386 (+ (- ?x747 ?x2343) 1) ?x218))))
 (let ((?x310 (ite $x589 244 243)))
 (let (($x178 (>= ?x747 ?x310)))
 (let ((?x438 (ite $x589 274 273)))
 (let (($x643 (>= ?x747 ?x438)))
 (let ((?x2878 (ite $x643 (+ (- ?x747 ?x438) 1) (ite $x178 (+ (- ?x747 ?x310) 1) ?x2999))))
 (let ((?x494 (ite $x589 305 304)))
 (let (($x105 (>= ?x747 ?x494)))
 (let ((?x134 (ite $x589 335 334)))
 (let (($x614 (>= ?x747 ?x134)))
 (let ((?x3349 (ite $x614 (+ (- ?x747 ?x134) 1) (ite $x105 (+ (- ?x747 ?x494) 1) ?x2878))))
 (let (($x352 (= 0 0)))
 (let (($x460 (and (= (mod (ite $x352 ?x607 ?x240) 4) 0) (and (distinct (mod (ite $x352 ?x607 ?x240) 100) 0) true))))
 (let (($x2605 (or $x460 (= (mod (ite $x352 ?x607 ?x240) 400) 0))))
 (let ((?x129 (ite $x549 5 (ite $x1414 4 (ite $x2810 3 (ite $x617 2 1))))))
 (let ((?x619 (ite $x178 9 (ite $x784 8 (ite $x386 7 (ite $x488 6 ?x129))))))
 (let ((?x3135 (ite $x352 ?x751 (ite $x614 12 (ite $x105 11 (ite $x643 10 ?x619))))))
 (let ((?x1985 (ite (= 2 ?x3135) (ite $x2605 31 31) (ite (= 1 ?x3135) (ite $x2605 0 0) 0))))
 (let ((?x125 (ite (= 4 ?x3135) (ite $x2605 91 90) (ite (= 3 ?x3135) (ite $x2605 60 59) ?x1985))))
 (let ((?x538 (ite (= 6 ?x3135) (ite $x2605 152 151) (ite (= 5 ?x3135) (ite $x2605 121 120) ?x125))))
 (let ((?x660 (ite (= 8 ?x3135) (ite $x2605 213 212) (ite (= 7 ?x3135) (ite $x2605 182 181) ?x538))))
 (let ((?x493 (ite (= 10 ?x3135) (ite $x2605 274 273) (ite (= 9 ?x3135) (ite $x2605 244 243) ?x660))))
 (let ((?x1164 (ite (= 12 ?x3135) (ite $x2605 335 334) (ite (= 11 ?x3135) (ite $x2605 305 304) ?x493))))
 (let ((?x180 (+ (* 365 (- (ite $x352 ?x607 ?x240) 1)) (div (- (ite $x352 ?x607 ?x240) 1) 4))))
 (let ((?x774 (+ (- ?x180 (div (- (ite $x352 ?x607 ?x240) 1) 100)) (div (- (ite $x352 ?x607 ?x240) 1) 400))))
 (= y_days (- (+ (+ ?x774 ?x1164) (- (ite $x352 ?x688 ?x3349) 1)) ?x97))))))))))))))))))))))))))))))))))))))))))))))))))))))))))))))))))))))))))))))))))))))))))))))))))))))))))))))))))))))))))))))))))))))
(assert
 (not (= y_days (+ x_days 365))))
(check-sat)
